p cnf 12 50 
-1 5 -9 0
-2 12 4 0
2 3 6 0
-1 9 5 0
-9 1 -6 0
-4 -12 -9 0
12 -1 -5 0
9 -3 -1 0
-4 11 -8 0
2 -10 12 0
-7 -4 -11 0
-3 8 2 0
2 7 9 0
-1 -8 12 0
8 -11 -12 0
10 -5 9 0
4 -8 -1 0
5 6 -10 0
7 -8 4 0
1 10 6 0
-2 -6 4 0
8 -4 -5 0
-3 -11 -8 0
-7 8 -12 0
-9 1 6 0
-1 11 12 0
2 -11 9 0
5 10 3 0
-12 2 5 0
-10 7 1 0
-12 -3 -10 0
-10 -2 -12 0
9 5 -2 0
7 -6 -3 0
-9 -5 -4 0
10 12 2 0
2 -10 -12 0
12 7 1 0
-10 6 9 0
6 5 2 0
1 7 3 0
9 -5 -2 0
-7 -6 12 0
-4 -7 -2 0
-1 -6 -8 0
-6 -10 5 0
5 -2 11 0
7 -8 10 0
-7 1 -10 0
6 1 -9 0
